
Gurobi 8.1.1 (win64) logging started 11/23/19 16:05:21

Changed value of parameter LogFile to logs/full/feas/full-06-15-2.log
   Prev: gurobi.log  Default: 
Changed value of parameter LogToConsole to 0
   Prev: 1  Min: 0  Max: 1  Default: 1
Changed value of parameter TimeLimit to 3600.0
   Prev: 1e+100  Min: 0.0  Max: 1e+100  Default: 1e+100
Optimize a model with 2127 rows, 1002 columns and 8052 nonzeros
Variable types: 0 continuous, 1002 integer (990 binary)
Coefficient statistics:
  Matrix range     [1e+00, 3e+02]
  Objective range  [1e+00, 1e+00]
  Bounds range     [1e+00, 1e+00]
  RHS range        [1e+00, 4e+02]
Presolve time: 0.02s
Presolved: 2127 rows, 1002 columns, 8052 nonzeros
Variable types: 0 continuous, 1002 integer (990 binary)

Root relaxation: objective 6.600000e+01, 143 iterations, 0.00 seconds

    Nodes    |    Current Node    |     Objective Bounds      |     Work
 Expl Unexpl |  Obj  Depth IntInf | Incumbent    BestBd   Gap | It/Node Time

     0     0   66.00000    0   78          -   66.00000      -     -    0s
     0     0   66.00000    0  118          -   66.00000      -     -    0s
     0     0   66.00000    0   70          -   66.00000      -     -    0s
     0     0   66.00000    0   67          -   66.00000      -     -    0s
     0     0   66.00000    0   67          -   66.00000      -     -    0s
     0     2   66.00000    0   65          -   66.00000      -     -    0s
H  824   737                     199.0000000   72.51902  63.6%   4.7    4s
H  824   699                     182.0000000   72.51902  60.2%   4.7    4s
   827   701   74.00000    3  124  182.00000   72.54033  60.1%   4.7    5s
H  836   670                     180.0000000   72.61710  59.7%   4.6    6s
   911   721  146.00000    3   57  180.00000   89.54680  50.3%  49.1   10s
* 2990  1272             246     166.0000000  106.09834  36.1%  33.9   13s
  4076  2093  128.00000  188   34  166.00000  108.53900  34.6%  27.5   15s
* 7388  3993             191     164.0000000  113.00000  31.1%  19.9   16s
H 8331  4453                     162.0000000  115.00000  29.0%  18.8   16s
H10604  5447                     161.0000000  117.00000  27.3%  16.7   19s
 10609  5450  154.00000  279   63  161.00000  117.00000  27.3%  16.7   20s
H10625  5187                     157.0000000  117.00000  25.5%  16.7   20s
*10781  4964              77     155.0000000  117.00000  24.5%  19.2   24s
*10782  4716              77     154.0000000  117.00000  24.0%  19.2   24s
 10888  4737  125.00000   89   26  154.00000  117.00000  24.0%  19.6   25s
*11125  4501              84     152.0000000  117.00000  23.0%  19.8   25s
*13591  4485             101     151.0000000  122.00000  19.2%  19.4   27s
H14823  4068                     144.0000000  123.00000  14.6%  19.1   28s
H15964  3635                     143.0000000  125.00000  12.6%  19.0   29s
*16530  3054              97     141.0000000  127.00000  9.93%  19.0   29s
 17047  2479 infeasible   91       141.00000  130.00000  7.80%  19.1   30s

Cutting planes:
  Gomory: 28
  Implied bound: 64
  MIR: 19
  StrongCG: 3
  Flow cover: 82
  Zero half: 4

Explored 18149 nodes (343812 simplex iterations) in 30.49 seconds
Thread count was 4 (of 4 available processors)

Solution count 10: 141 143 144 ... 162

Optimal solution found (tolerance 1.00e-04)
Best objective 1.410000000000e+02, best bound 1.410000000000e+02, gap 0.0000%

Gurobi 8.1.1 (win64) logging started 11/23/19 16:05:52

Changed value of parameter LogFile to logs/full/feas/full-06-15-2.log
   Prev: gurobi.log  Default: 
Changed value of parameter LogToConsole to 0
   Prev: 1  Min: 0  Max: 1  Default: 1
Changed value of parameter TimeLimit to 3600.0
   Prev: 1e+100  Min: 0.0  Max: 1e+100  Default: 1e+100
Optimize a model with 1167 rows, 549 columns and 4392 nonzeros
Variable types: 0 continuous, 549 integer (540 binary)
Coefficient statistics:
  Matrix range     [1e+00, 3e+02]
  Objective range  [1e+00, 1e+00]
  Bounds range     [1e+00, 1e+00]
  RHS range        [1e+00, 4e+02]
Presolve time: 0.01s
Presolved: 1167 rows, 549 columns, 4392 nonzeros
Variable types: 0 continuous, 549 integer (540 binary)

Root relaxation: objective 3.600000e+01, 134 iterations, 0.00 seconds

    Nodes    |    Current Node    |     Objective Bounds      |     Work
 Expl Unexpl |  Obj  Depth IntInf | Incumbent    BestBd   Gap | It/Node Time

     0     0   36.00000    0  103          -   36.00000      -     -    0s
     0     0   36.00000    0  118          -   36.00000      -     -    0s
     0     0   39.56342    0  105          -   39.56342      -     -    0s
     0     0   41.68677    0   81          -   41.68677      -     -    0s
     0     0   41.72683    0   78          -   41.72683      -     -    0s
     0     0   41.72683    0   78          -   41.72683      -     -    0s
     0     0   42.26134    0   77          -   42.26134      -     -    0s
     0     0   42.26134    0   76          -   42.26134      -     -    0s
     0     0   42.41585    0   69          -   42.41585      -     -    0s
     0     0   42.41585    0   76          -   42.41585      -     -    0s
     0     0   42.97868    0   93          -   42.97868      -     -    0s
     0     0   43.02946    0   98          -   43.02946      -     -    0s
     0     0   43.52576    0   91          -   43.52576      -     -    0s
     0     0   43.52576    0   92          -   43.52576      -     -    0s
     0     0   44.42448    0   83          -   44.42448      -     -    0s
     0     0   44.51802    0  101          -   44.51802      -     -    0s
     0     0   44.51802    0  100          -   44.51802      -     -    0s
     0     0   45.21272    0  105          -   45.21272      -     -    0s
     0     0   45.21272    0  104          -   45.21272      -     -    0s
     0     0   45.21272    0  102          -   45.21272      -     -    0s
     0     0   45.21272    0   79          -   45.21272      -     -    0s
     0     2   45.21272    0   75          -   45.21272      -     -    0s
H12194  7141                     244.0000000   80.00000  67.2%   4.5    2s
H12454  6716                     208.0000000   80.00000  61.5%   4.5    2s
H12722  6879                     207.0000000   80.00000  61.4%   4.5    3s
 20486 11989 infeasible  173       207.00000   82.96837  59.9%   4.9    5s
 20935 12231  169.00000  194   79  207.00000   83.00000  59.9%   4.9   10s
 20965 12253   83.00000   29   52  207.00000   83.00000  59.9%   5.1   15s
H21922 11657                     161.0000000   83.00000  48.4%   6.8   18s
H21956 11045                     158.0000000   83.00000  47.5%   6.8   18s
H23476 10590                     148.0000000   83.00000  43.9%   7.7   19s
 24766 10961 infeasible   99       148.00000   87.00000  41.2%   7.8   20s
*35010  9543              76     133.0000000  107.00000  19.5%   8.9   24s
 35430  9372  118.00000   51   26  133.00000  107.00000  19.5%   9.0   25s
H35432  8544                     131.0000000  107.00000  18.3%   9.0   25s

Cutting planes:
  Gomory: 115
  Implied bound: 23
  MIR: 11
  StrongCG: 8
  Flow cover: 25

Explored 40103 nodes (407942 simplex iterations) in 28.16 seconds
Thread count was 4 (of 4 available processors)

Solution count 8: 131 133 148 ... 244

Optimal solution found (tolerance 1.00e-04)
Best objective 1.310000000000e+02, best bound 1.310000000000e+02, gap 0.0000%

Gurobi 8.1.1 (win64) logging started 11/23/19 16:06:20

Changed value of parameter LogFile to logs/full/feas/full-06-15-2.log
   Prev: gurobi.log  Default: 
Changed value of parameter LogToConsole to 0
   Prev: 1  Min: 0  Max: 1  Default: 1
Changed value of parameter TimeLimit to 3600.0
   Prev: 1e+100  Min: 0.0  Max: 1e+100  Default: 1e+100
Optimize a model with 911 rows, 428 columns and 3416 nonzeros
Variable types: 0 continuous, 428 integer (420 binary)
Coefficient statistics:
  Matrix range     [1e+00, 3e+02]
  Objective range  [1e+00, 1e+00]
  Bounds range     [1e+00, 1e+00]
  RHS range        [1e+00, 4e+02]
Presolve time: 0.01s
Presolved: 911 rows, 428 columns, 3416 nonzeros
Variable types: 0 continuous, 428 integer (420 binary)

Root relaxation: objective 2.800000e+01, 161 iterations, 0.00 seconds

    Nodes    |    Current Node    |     Objective Bounds      |     Work
 Expl Unexpl |  Obj  Depth IntInf | Incumbent    BestBd   Gap | It/Node Time

     0     0   28.00000    0  117          -   28.00000      -     -    0s
     0     0   30.28338    0  121          -   30.28338      -     -    0s
     0     0   30.28338    0  121          -   30.28338      -     -    0s
     0     0   34.80819    0  103          -   34.80819      -     -    0s
     0     0   34.80819    0  102          -   34.80819      -     -    0s
     0     0   36.01487    0   74          -   36.01487      -     -    0s
     0     0   36.01487    0   76          -   36.01487      -     -    0s
     0     0   36.43027    0   87          -   36.43027      -     -    0s
     0     0   37.29904    0   82          -   37.29904      -     -    0s
     0     0   37.29904    0   83          -   37.29904      -     -    0s
     0     0   38.27627    0   89          -   38.27627      -     -    0s
     0     0   38.27890    0   98          -   38.27890      -     -    0s
     0     0   38.37580    0  104          -   38.37580      -     -    0s
     0     0   38.38938    0   92          -   38.38938      -     -    0s
     0     0   38.54675    0   99          -   38.54675      -     -    0s
     0     0   39.01817    0   98          -   39.01817      -     -    0s
     0     0   39.02619    0   97          -   39.02619      -     -    0s
     0     0   39.02619    0   97          -   39.02619      -     -    0s
     0     0   39.09569    0   91          -   39.09569      -     -    0s
     0     0   39.09569    0   99          -   39.09569      -     -    0s
     0     0   39.09569    0  101          -   39.09569      -     -    0s
     0     0   39.09569    0   78          -   39.09569      -     -    0s
     0     2   39.09569    0   73          -   39.09569      -     -    0s
 20586 15059  115.00000   67   35          -   77.49357      -   5.7    6s
H26946  7999                     174.0000000   82.00000  52.9%   5.8    7s
 30882  9630  107.00000   71   63  174.00000   88.00000  49.4%   6.2   10s
 33495 10448 infeasible   96       174.00000   88.00000  49.4%   7.9   15s
H34482  9910                     139.0000000   88.00000  36.7%   8.2   15s
 40524  9526  123.00000  124   21  139.00000   94.00000  32.4%  10.8   20s
H44374  7638                     130.0000000  101.00000  22.3%  12.2   23s
 45888  6670     cutoff   77       130.00000  106.00000  18.5%  12.9   25s

Cutting planes:
  Gomory: 47
  Implied bound: 63
  MIR: 57
  Flow cover: 153
  Inf proof: 1
  Zero half: 10

Explored 49801 nodes (683683 simplex iterations) in 28.12 seconds
Thread count was 4 (of 4 available processors)

Solution count 3: 130 139 174 

Optimal solution found (tolerance 1.00e-04)
Best objective 1.300000000000e+02, best bound 1.300000000000e+02, gap 0.0000%

Gurobi 8.1.1 (win64) logging started 11/23/19 16:06:48

Changed value of parameter LogFile to logs/full/feas/full-06-15-2.log
   Prev: gurobi.log  Default: 
Changed value of parameter LogToConsole to 0
   Prev: 1  Min: 0  Max: 1  Default: 1
Changed value of parameter TimeLimit to 3600.0
   Prev: 1e+100  Min: 0.0  Max: 1e+100  Default: 1e+100
Optimize a model with 687 rows, 322 columns and 2562 nonzeros
Variable types: 0 continuous, 322 integer (315 binary)
Coefficient statistics:
  Matrix range     [1e+00, 3e+02]
  Objective range  [1e+00, 1e+00]
  Bounds range     [1e+00, 1e+00]
  RHS range        [1e+00, 4e+02]
Presolve time: 0.01s
Presolved: 687 rows, 322 columns, 2562 nonzeros
Variable types: 0 continuous, 322 integer (315 binary)

Root relaxation: objective 2.100000e+01, 180 iterations, 0.00 seconds

    Nodes    |    Current Node    |     Objective Bounds      |     Work
 Expl Unexpl |  Obj  Depth IntInf | Incumbent    BestBd   Gap | It/Node Time

     0     0   21.00000    0  140          -   21.00000      -     -    0s
     0     0   27.27611    0  109          -   27.27611      -     -    0s
     0     0   30.97114    0   92          -   30.97114      -     -    0s
     0     0   31.13139    0  143          -   31.13139      -     -    0s
     0     0   31.13139    0  143          -   31.13139      -     -    0s
     0     0   32.31817    0  164          -   32.31817      -     -    0s
     0     0   32.42201    0  165          -   32.42201      -     -    0s
     0     0   32.42201    0  165          -   32.42201      -     -    0s
     0     0   33.41616    0  158          -   33.41616      -     -    0s
     0     0   33.44120    0  153          -   33.44120      -     -    0s
     0     0   33.46572    0  151          -   33.46572      -     -    0s
     0     0   33.46572    0  153          -   33.46572      -     -    0s
     0     0   33.59309    0  152          -   33.59309      -     -    0s
     0     0   33.73777    0  152          -   33.73777      -     -    0s
     0     0   33.74792    0  152          -   33.74792      -     -    0s
     0     0   33.74818    0  151          -   33.74818      -     -    0s
     0     0   33.77617    0  155          -   33.77617      -     -    0s
     0     0   33.89197    0  151          -   33.89197      -     -    0s
     0     0   33.94183    0  164          -   33.94183      -     -    0s
     0     0   33.95778    0  180          -   33.95778      -     -    0s
     0     0   33.96783    0  182          -   33.96783      -     -    0s
     0     0   34.34300    0  158          -   34.34300      -     -    0s
     0     0   34.53861    0  156          -   34.53861      -     -    0s
     0     0   34.54135    0  157          -   34.54135      -     -    0s
     0     0   35.57102    0  135          -   35.57102      -     -    0s
     0     0   35.61179    0  133          -   35.61179      -     -    0s
     0     0   35.62043    0  134          -   35.62043      -     -    0s
     0     0   37.14440    0  131          -   37.14440      -     -    0s
     0     0   37.30542    0  172          -   37.30542      -     -    0s
     0     0   37.32580    0  106          -   37.32580      -     -    0s
     0     0   37.33186    0  109          -   37.33186      -     -    0s
     0     0   38.16194    0  172          -   38.16194      -     -    0s
     0     0   39.20474    0  149          -   39.20474      -     -    0s
     0     0   39.22633    0  166          -   39.22633      -     -    0s
     0     0   39.23642    0  164          -   39.23642      -     -    0s
     0     0   39.71939    0  142          -   39.71939      -     -    0s
     0     0   41.69999    0  156          -   41.69999      -     -    0s
     0     0   41.71123    0  164          -   41.71123      -     -    0s
     0     0   41.83383    0  160          -   41.83383      -     -    0s
     0     0   41.84499    0  161          -   41.84499      -     -    0s
     0     0   41.86310    0  161          -   41.86310      -     -    0s
     0     0   41.86310    0  161          -   41.86310      -     -    0s
     0     2   41.86310    0  161          -   41.86310      -     -    0s
 14150 10872  164.32505  113   38          -   75.85731      -   8.9    5s
 22589 17089 infeasible  158               -   79.00000      -   8.3   10s
H42360 19795                     189.0000000   85.00000  55.0%   7.5   14s
 43016 20096   97.00000   86   39  189.00000   85.00000  55.0%   7.6   15s
H43321 20122                     188.0000000   85.65062  54.4%   7.7   15s
 56157 27530 infeasible   97       188.00000   89.04849  52.6%   8.3   20s
 70857 35842 infeasible   94       188.00000   92.00000  51.1%   8.4   25s
 88326 44801  100.00000  124   26  188.00000   95.00000  49.5%   8.6   30s
 104046 53356  141.00000   95   24  188.00000   96.00000  48.9%   8.6   35s
H113308 44909                     147.0000000   96.59544  34.3%   8.5   37s
 116594 45253 infeasible   54       147.00000   97.00000  34.0%   8.8   40s
H124480 45364                     146.0000000   99.00000  32.2%   9.2   44s
 124970 45091     cutoff  115       146.00000   99.00000  32.2%   9.3   45s
 130375 44484     cutoff  131       146.00000  101.00000  30.8%   9.7   50s
 135302 41949 infeasible  121       146.00000  103.00000  29.5%  10.2   55s
 139918 39677 infeasible   58       146.00000  105.00000  28.1%  10.7   60s
 144403 37680 infeasible   81       146.00000  107.00000  26.7%  11.1   65s
 150201 34723 infeasible  177       146.00000  109.87045  24.7%  11.5   70s
 156188 31227  113.00000  105   20  146.00000  113.00000  22.6%  11.8   75s
 163046 27126 infeasible   75       146.00000  116.25581  20.4%  12.1   80s
 167927 24286 infeasible   61       146.00000  119.00000  18.5%  12.3   85s
 174892 19539     cutoff  114       146.00000  123.00000  15.8%  12.4   90s
 184249 12181 infeasible  129       146.00000  130.00000  11.0%  12.4   95s
 195672  1436     cutoff  117       146.00000  143.00000  2.05%  12.2  100s

Cutting planes:
  Gomory: 97
  MIR: 111
  StrongCG: 2
  Flow cover: 157
  Inf proof: 17
  Zero half: 1

Explored 197192 nodes (2422984 simplex iterations) in 100.32 seconds
Thread count was 4 (of 4 available processors)

Solution count 4: 146 147 188 189 

Optimal solution found (tolerance 1.00e-04)
Best objective 1.460000000000e+02, best bound 1.460000000000e+02, gap 0.0000%
